certificates/rado_a3_c67_N22.cnf
c Rad2 upper bound instance: x1 + 3*x2 - x3 = 67, interval [1,22]
p cnf 22 168
1 2 22 0
-1 -2 -22 0
2 3 22 0
-2 -3 -22 0
3 4 22 0
-3 -4 -22 0
1 5 21 0
-1 -5 -21 0
4 5 22 0
-4 -5 -22 0
2 6 21 0
-2 -6 -21 0
5 6 22 0
-5 -6 -22 0
3 7 21 0
-3 -7 -21 0
6 7 22 0
-6 -7 -22 0
1 8 20 0
-1 -8 -20 0
4 8 21 0
-4 -8 -21 0
7 8 22 0
-7 -8 -22 0
2 9 20 0
-2 -9 -20 0
5 9 21 0
-5 -9 -21 0
8 9 22 0
-8 -9 -22 0
3 10 20 0
-3 -10 -20 0
6 10 21 0
-6 -10 -21 0
9 10 22 0
-9 -10 -22 0
1 11 19 0
-1 -11 -19 0
4 11 20 0
-4 -11 -20 0
7 11 21 0
-7 -11 -21 0
10 11 22 0
-10 -11 -22 0
2 12 19 0
-2 -12 -19 0
5 12 20 0
-5 -12 -20 0
8 12 21 0
-8 -12 -21 0
11 12 22 0
-11 -12 -22 0
3 13 19 0
-3 -13 -19 0
6 13 20 0
-6 -13 -20 0
9 13 21 0
-9 -13 -21 0
12 13 22 0
-12 -13 -22 0
1 14 18 0
-1 -14 -18 0
4 14 19 0
-4 -14 -19 0
7 14 20 0
-7 -14 -20 0
10 14 21 0
-10 -14 -21 0
13 14 22 0
-13 -14 -22 0
2 15 18 0
-2 -15 -18 0
5 15 19 0
-5 -15 -19 0
8 15 20 0
-8 -15 -20 0
11 15 21 0
-11 -15 -21 0
14 15 22 0
-14 -15 -22 0
3 16 18 0
-3 -16 -18 0
6 16 19 0
-6 -16 -19 0
9 16 20 0
-9 -16 -20 0
12 16 21 0
-12 -16 -21 0
15 16 22 0
-15 -16 -22 0
1 17 0
-1 -17 0
4 17 18 0
-4 -17 -18 0
7 17 19 0
-7 -17 -19 0
10 17 20 0
-10 -17 -20 0
13 17 21 0
-13 -17 -21 0
16 17 22 0
-16 -17 -22 0
2 17 18 0
-2 -17 -18 0
5 18 0
-5 -18 0
8 18 19 0
-8 -18 -19 0
11 18 20 0
-11 -18 -20 0
14 18 21 0
-14 -18 -21 0
17 18 22 0
-17 -18 -22 0
3 17 19 0
-3 -17 -19 0
6 18 19 0
-6 -18 -19 0
9 19 0
-9 -19 0
12 19 20 0
-12 -19 -20 0
15 19 21 0
-15 -19 -21 0
18 19 22 0
-18 -19 -22 0
1 16 20 0
-1 -16 -20 0
4 17 20 0
-4 -17 -20 0
7 18 20 0
-7 -18 -20 0
10 19 20 0
-10 -19 -20 0
13 20 0
-13 -20 0
16 20 21 0
-16 -20 -21 0
19 20 22 0
-19 -20 -22 0
2 16 21 0
-2 -16 -21 0
5 17 21 0
-5 -17 -21 0
8 18 21 0
-8 -18 -21 0
11 19 21 0
-11 -19 -21 0
14 20 21 0
-14 -20 -21 0
17 21 0
-17 -21 0
20 21 22 0
-20 -21 -22 0
3 16 22 0
-3 -16 -22 0
6 17 22 0
-6 -17 -22 0
9 18 22 0
-9 -18 -22 0
12 19 22 0
-12 -19 -22 0
15 20 22 0
-15 -20 -22 0
18 21 22 0
-18 -21 -22 0
21 22 0
-21 -22 0
