certificates/rado_a3_c67_N22.drat
-22 0
21 0
-17 0
1 0
16 0
18 0
6 0
-5 0
-3 0
-12 0
-20 0
-2 0
-14 0
-8 0
-10 0
-19 0
4 0
0
